\ This file has been generated by DOcplex
\ ENCODING=ISO-8859-1
\Problem name: random_problem.lp

Minimize
 obj: - 136 x0 - 68 x1 - 34 x2 + 400 x3 + 200 x4 + 100 x5 - 104 x6 - 52 x7
      - 26 x8 + [ 17280 x0^2 + 17280 x0*x1 + 8640 x0*x2 + 4224 x0*x3
      + 2112 x0*x4 + 1056 x0*x5 + 6784 x0*x6 + 3392 x0*x7 + 1696 x0*x8
      + 4320 x1^2 + 4320 x1*x2 + 2112 x1*x3 + 1056 x1*x4 + 528 x1*x5
      + 3392 x1*x6 + 1696 x1*x7 + 848 x1*x8 + 1080 x2^2 + 1056 x2*x3 + 528 x2*x4
      + 264 x2*x5 + 1696 x2*x6 + 848 x2*x7 + 424 x2*x8 + 6464 x3^2 + 6464 x3*x4
      + 3232 x3*x5 + 384 x3*x6 + 192 x3*x7 + 96 x3*x8 + 1616 x4^2 + 1616 x4*x5
      + 192 x4*x6 + 96 x4*x7 + 48 x4*x8 + 404 x5^2 + 96 x5*x6 + 48 x5*x7
      + 24 x5*x8 + 3008 x6^2 + 3008 x6*x7 + 1504 x6*x8 + 752 x7^2 + 752 x7*x8
      + 188 x8^2 ]/2
Subject To
 c0: 4 x0 + 2 x1 + x2 + 4 x3 + 2 x4 + x5 + 4 x6 + 2 x7 + x8 = 7

Bounds
 0 <= x0 <= 1
 0 <= x1 <= 1
 0 <= x2 <= 1
 0 <= x3 <= 1
 0 <= x4 <= 1
 0 <= x5 <= 1
 0 <= x6 <= 1
 0 <= x7 <= 1
 0 <= x8 <= 1

Binaries
 x0 x1 x2 x3 x4 x5 x6 x7 x8
End
